75 60 5
0 1 0
1 2 0
2 3 0
3 4 0
5 6 1
6 7 1
7 8 1
8 9 1
10 11 2
11 12 2
12 13 2
13 14 2
15 16 3
16 17 3
17 18 3
18 19 3
20 21 4
21 22 4
22 23 4
23 24 4
25 26 5
26 27 5
27 28 5
28 29 5
30 31 6
31 32 6
32 33 6
33 34 6
35 36 7
36 37 7
37 38 7
38 39 7
40 41 8
41 42 8
42 43 8
43 44 8
45 46 9
46 47 9
47 48 9
48 49 9
50 51 10
51 52 10
52 53 10
53 54 10
55 56 11
56 57 11
57 58 11
58 59 11
60 61 12
61 62 12
62 63 12
63 64 12
65 66 13
66 67 13
67 68 13
68 69 13
70 71 14
71 72 14
72 73 14
73 74 14
1 1 58
1 2 44
1 3 5
1 0 9
2 4 58 2 58
1 1 89
1 0 97
1 4 96
1 3 77
1 2 84
1 0 77
1 1 87
2 2 81 0 81
1 4 39
1 3 85
1 3 57
2 1 21 0 21
1 2 31
1 0 15
1 4 73
1 2 48
2 0 40 4 40
1 1 49
1 3 70
1 4 71
1 3 34
1 4 82
1 2 80
2 0 10 3 10
1 1 22
1 1 91
2 4 75 2 75
1 0 55
1 2 17
1 3 7
1 2 62
1 3 47
1 1 72
1 4 35
1 0 11
1 0 64
1 3 75
2 4 50 0 50
1 1 90
1 2 94
2 2 67 0 67
1 4 20
2 3 15 0 15
2 0 12 2 12
2 1 71 2 71
1 0 52
1 4 93
1 3 68
1 2 29
1 1 57
1 2 70
1 0 58
1 1 93
1 4 7
1 3 77
1 3 27
1 2 82
1 1 63
1 4 6
1 0 95
1 1 87
1 2 56
1 4 36
1 0 26
1 3 48
2 3 76 2 76
1 2 36
1 0 36
1 4 15
1 1 8